NAME : in_house_9_13
TYPE : TSP
DIMENSION : 9
EDGE_WEIGHT_TYPE : EXPLICIT
EDGE_WEIGHT_FORMAT : UPPER_ROW
COMMENT : INVERSION_SHIFT=1
EDGE_WEIGHT_SECTION
29
67
55
6
49
77
33
1
15
27
59
71
8
65
53
46
49
57
45
59
65
42
30
25
38
22
43
77
78
78
70
77
68
65
71
13
